language ESSENCE' 1.0
$ minion Nodes: 1
$ minion TotalTime: 0.000448
$ Savile Row TotalTime: 0.147
letting pain_tuple1_tuple1_tuple2 be [2, 7;int(1..2)]
letting pain_tuple1_tuple1_tuple1 be [1, 6;int(1..2)]
letting pain_tuple1_tuple1_tuple4 be [4, 9;int(1..2)]
letting pain_tuple1_tuple1_tuple3 be [3, 8;int(1..2)]
